282 5
10 10 10 10 10 

0 0 0 0 0 0 2 2 14 
0 0 0 0 0 0 2 3 5 
6 0 0 1 0 0 2 7 4 
5 0 0 6 0 0 1 6 
3 0 0 7 0 0 1 6 
4 0 0 6 0 0 2 9 8 
9 0 0 8 0 0 2 9 8 
8 0 0 2 0 0 1 10 
2 0 0 4 0 0 1 10 
9 0 0 5 0 0 2 11 113 
3 0 0 5 0 0 1 12 
7 0 0 6 0 0 1 13 
0 0 0 0 0 0 2 36 48 
0 0 0 0 0 0 3 15 18 271 
1 0 1 0 1 0 1 16 
3 0 7 0 8 0 2 23 17 
4 0 5 0 4 0 2 22 19 
8 0 4 0 6 0 2 22 19 
8 0 5 0 7 0 1 20 
3 0 4 0 3 0 2 27 21 
2 0 5 0 4 0 1 24 
10 0 9 0 5 0 1 24 
1 0 3 0 5 0 1 24 
1 0 6 0 8 0 1 25 
10 0 3 0 4 0 1 26 
2 0 9 0 3 0 1 28 
9 0 5 0 3 0 1 28 
5 0 4 0 4 0 1 29 
6 0 4 0 6 0 1 30 
8 0 4 0 5 0 2 34 31 
5 0 6 0 6 0 1 32 
8 0 5 0 5 0 1 33 
1 0 3 0 7 0 1 35 
10 0 8 0 6 0 1 35 
0 0 0 0 0 0 1 60 
0 0 0 0 0 0 1 37 
1 0 0 1 0 0 2 39 38 
1 0 0 2 0 0 4 46 43 41 206 
7 0 0 4 0 0 1 40 
9 0 0 3 0 0 2 43 41 
1 0 0 9 0 0 1 42 
6 0 0 5 0 0 1 44 
1 0 0 7 0 0 1 44 
9 0 0 5 0 0 1 45 
4 0 0 8 0 0 1 47 
6 0 0 6 0 0 1 47 
0 0 0 0 0 0 1 60 
0 0 0 0 0 0 2 49 50 
5 1 0 0 0 0 2 54 52 
9 10 0 0 0 0 1 51 
1 7 0 0 0 0 1 52 
9 2 0 0 0 0 1 53 
3 3 0 0 0 0 2 58 55 
5 2 0 0 0 0 2 55 167 
7 5 0 0 0 0 1 56 
5 6 0 0 0 0 1 57 
10 8 0 0 0 0 1 59 
6 6 0 0 0 0 1 59 
0 0 0 0 0 0 1 60 
0 0 0 0 0 0 5 61 73 85 97 109 
0 0 0 0 0 0 2 62 68 
2 1 0 0 0 0 2 71 63 
8 7 0 0 0 0 1 64 
10 5 0 0 0 0 2 70 65 
10 6 0 0 0 0 1 66 
3 7 0 0 0 0 1 67 
3 4 0 0 0 0 1 69 
5 4 0 0 0 0 1 70 
7 5 0 0 0 0 1 72 
5 8 0 0 0 0 1 72 
10 3 0 0 0 0 1 72 
0 0 0 0 0 0 1 121 
0 0 0 0 0 0 2 74 78 
3 0 0 2 0 0 1 75 
2 0 0 4 0 0 2 81 76 
4 0 0 5 0 0 1 77 
2 0 0 3 0 0 1 79 
2 0 0 4 0 0 1 79 
8 0 0 3 0 0 2 83 80 
9 0 0 8 0 0 1 82 
7 0 0 7 0 0 1 82 
2 0 0 10 0 0 1 84 
8 0 0 4 0 0 1 84 
0 0 0 0 0 0 1 121 
0 0 0 0 0 0 1 86 
9 0 0 1 0 0 2 91 87 
9 0 0 4 0 0 1 88 
1 0 0 3 0 0 1 89 
10 0 0 8 0 0 2 92 90 
3 0 0 6 0 0 2 95 93 
10 0 0 7 0 0 2 95 93 
9 0 0 7 0 0 2 95 94 
1 0 0 3 0 0 1 94 
2 0 0 5 0 0 1 96 
6 0 0 6 0 0 1 96 
0 0 0 0 0 0 1 121 
0 0 0 0 0 0 2 98 107 
1 0 0 0 0 1 3 106 105 99 
7 0 0 0 0 8 1 100 
6 0 0 0 0 4 1 101 
10 0 0 0 0 7 1 102 
3 0 0 0 0 4 1 103 
1 0 0 0 0 8 1 104 
3 0 0 0 0 1 1 108 
9 0 0 0 0 4 1 108 
10 0 0 0 0 7 1 108 
7 0 0 0 0 6 1 108 
0 0 0 0 0 0 1 121 
0 0 0 0 0 0 4 110 116 118 119 
4 0 0 0 0 1 1 111 
3 0 0 0 0 4 1 112 
3 0 0 0 0 7 1 113 
10 0 0 0 0 5 1 114 
10 0 0 0 0 9 1 115 
5 0 0 0 0 5 1 117 
4 0 0 0 0 3 1 117 
8 0 0 0 0 4 1 120 
4 0 0 0 0 3 1 120 
5 0 0 0 0 9 1 120 
0 0 0 0 0 0 1 121 
0 0 0 0 0 0 5 122 134 156 178 200 
0 0 0 0 0 0 1 123 
2 0 0 2 0 0 2 125 124 
10 0 0 5 0 0 1 126 
3 0 0 6 0 0 1 126 
2 0 0 10 0 0 2 129 127 
8 0 0 3 0 0 2 132 128 
2 0 0 2 0 0 1 130 
3 0 0 6 0 0 1 130 
4 0 0 6 0 0 1 131 
6 0 0 4 0 0 1 133 
9 0 0 6 0 0 1 133 
0 0 0 0 0 0 5 222 234 246 258 270 
0 0 0 0 0 0 2 135 136 
7 0 1 0 1 0 1 137 
4 0 9 0 5 0 3 143 141 140 
10 0 3 0 3 0 1 138 
2 0 3 0 7 0 1 139 
1 0 4 0 7 0 1 140 
7 0 6 0 6 0 1 142 
8 0 2 0 6 0 1 142 
3 0 5 0 5 0 2 147 144 
7 0 7 0 7 0 2 147 145 
4 0 8 0 4 0 1 145 
6 0 3 0 6 0 1 146 
9 0 7 0 5 0 2 154 148 
2 0 7 0 2 0 2 154 148 
5 0 7 0 4 0 1 149 
1 0 7 0 2 0 1 150 
4 0 7 0 6 0 1 151 
5 0 4 0 8 0 1 152 
5 0 4 0 6 0 1 153 
10 0 3 0 5 0 1 155 
7 0 3 0 5 0 1 155 
0 0 0 0 0 0 1 282 
0 0 0 0 0 0 3 157 162 176 
4 0 1 0 1 0 1 158 
7 0 6 0 4 0 1 159 
1 0 3 0 5 0 1 160 
6 0 7 0 5 0 2 166 161 
2 0 5 0 4 0 2 173 163 
10 0 6 0 5 0 2 173 164 
4 0 7 0 7 0 1 164 
8 0 6 0 4 0 2 175 165 
4 0 9 0 6 0 1 167 
6 0 7 0 4 0 1 167 
3 0 4 0 5 0 1 168 
10 0 5 0 4 0 1 169 
3 0 3 0 5 0 1 170 
8 0 6 0 4 0 1 171 
8 0 9 0 5 0 1 172 
5 0 4 0 7 0 1 174 
9 0 2 0 6 0 1 174 
7 0 2 0 4 0 1 177 
10 0 5 0 7 0 1 177 
1 0 3 0 8 0 1 177 
0 0 0 0 0 0 1 282 
0 0 0 0 0 0 2 179 181 
6 0 0 1 0 1 2 183 180 
3 0 0 6 0 6 1 182 
9 0 0 4 0 5 1 182 
8 0 0 5 0 7 1 184 
5 0 0 7 0 3 1 184 
2 0 0 5 0 5 1 185 
6 0 0 6 0 7 1 186 
9 0 0 9 0 4 2 188 187 
5 0 0 2 0 5 1 189 
7 0 0 3 0 7 1 189 
6 0 0 4 0 4 1 190 
4 0 0 4 0 8 2 194 191 
5 0 0 6 0 6 1 192 
1 0 0 5 0 3 2 198 193 
3 0 0 6 0 7 1 195 
4 0 0 4 0 6 1 195 
4 0 0 6 0 5 1 196 
10 0 0 6 0 2 1 197 
4 0 0 6 0 5 1 199 
1 0 0 5 0 4 1 199 
0 0 0 0 0 0 1 282 
0 0 0 0 0 0 2 201 209 
8 1 0 1 0 0 1 202 
6 6 0 2 0 0 1 203 
8 8 0 4 0 0 1 204 
4 4 0 10 0 0 2 208 205 
3 4 0 3 0 0 1 206 
1 6 0 5 0 0 2 220 207 
3 6 0 10 0 0 1 210 
3 4 0 5 0 0 1 210 
6 5 0 7 0 0 1 210 
5 3 0 5 0 0 2 217 211 
2 7 0 5 0 0 1 212 
10 2 0 2 0 0 2 219 213 
5 5 0 4 0 0 1 214 
1 6 0 5 0 0 1 215 
8 7 0 6 0 0 1 216 
1 4 0 7 0 0 1 218 
10 5 0 6 0 0 1 219 
3 5 0 2 0 0 1 221 
8 5 0 7 0 0 1 221 
10 7 0 4 0 0 1 221 
0 0 0 0 0 0 1 282 
0 0 0 0 0 0 3 223 229 231 
10 0 0 1 0 0 1 224 
3 0 0 4 0 0 2 227 225 
5 0 0 3 0 0 1 226 
1 0 0 5 0 0 1 228 
3 0 0 8 0 0 1 228 
2 0 0 4 0 0 1 230 
5 0 0 7 0 0 1 230 
1 0 0 7 0 0 1 232 
8 0 0 5 0 0 1 232 
6 0 0 6 0 0 1 233 
0 0 0 0 0 0 1 282 
0 0 0 0 0 0 2 235 239 
10 4 0 0 0 0 2 238 236 
2 4 0 0 0 0 1 237 
1 4 0 0 0 0 1 240 
4 4 0 0 0 0 1 240 
7 5 0 0 0 0 1 240 
8 5 0 0 0 0 2 242 241 
2 5 0 0 0 0 1 243 
7 10 0 0 0 0 1 243 
10 6 0 0 0 0 1 244 
4 3 0 0 0 0 1 245 
0 0 0 0 0 0 1 282 
0 0 0 0 0 0 3 247 255 256 
3 0 0 1 0 0 1 248 
4 0 0 3 0 0 2 254 249 
3 0 0 5 0 0 1 250 
2 0 0 6 0 0 1 251 
1 0 0 9 0 0 1 252 
3 0 0 5 0 0 1 253 
8 0 0 6 0 0 1 257 
10 0 0 6 0 0 1 257 
9 0 0 4 0 0 1 257 
1 0 0 5 0 0 1 257 
0 0 0 0 0 0 1 282 
0 0 0 0 0 0 2 259 265 
5 1 0 0 0 0 1 260 
6 3 0 0 0 0 2 268 261 
4 7 0 0 0 0 1 262 
8 10 0 0 0 0 2 267 263 
6 5 0 0 0 0 1 264 
8 7 0 0 0 0 1 266 
3 2 0 0 0 0 1 268 
7 4 0 0 0 0 1 269 
6 4 0 0 0 0 1 269 
6 7 0 0 0 0 1 269 
0 0 0 0 0 0 1 282 
0 0 0 0 0 0 1 271 
9 0 2 0 0 0 2 277 272 
5 0 2 0 0 0 1 273 
2 0 3 0 0 0 1 274 
5 0 4 0 0 0 3 280 279 275 
10 0 10 0 0 0 1 276 
5 0 5 0 0 0 1 278 
2 0 6 0 0 0 1 278 
5 0 4 0 0 0 1 281 
2 0 5 0 0 0 1 281 
6 0 9 0 0 0 1 281 
0 0 0 0 0 0 1 282 
0 0 0 0 0 0 0 
